(declare-fun a_ack!78 () (_ BitVec 32))
(declare-fun b_ack!76 () (_ BitVec 32))
(declare-fun c_ack!77 () (_ BitVec 64))
(assert (not (bvslt a_ack!78 #x00000000)))
(assert (not (bvslt b_ack!76 #x00000000)))
(assert (= #x00000000 a_ack!78))
(assert (not (bvslt b_ack!76 #x00000000)))
(assert (fp.eq ((_ to_fp 11 53) c_ack!77) ((_ to_fp 11 53) #x0000000000000000)))
(assert (not (= #x00000000 (bvand b_ack!76 #x00000001))))

(check-sat)
(exit)
